(set-logic HORN)
(set-info :source |
    Benchmark: C_VC
    Output by Princess (http://www.philipp.ruemmer.org/princess.shtml)
|)
(set-info :status sat)
(declare-fun inv_main16 (Int Int Int Int Int) Bool)
(declare-fun inv_main22 (Int Int Int Int Int) Bool)
(declare-fun inv_main3 (Int Int) Bool)
(assert (forall ((var0 Int) (var1 Int)) (inv_main3 var1 var0)))
(assert (forall ((var0 Int) (var1 Int) (var2 Int) (var3 Int) (var4 Int)) (or (not (and (inv_main16 var4 var3 var2 var1 var0) (and (= var4 var3) (= var2 0)))) (inv_main22 var4 var3 var2 var1 var0))))
(assert (forall ((var0 Int) (var1 Int) (var2 Int) (var3 Int) (var4 Int)) (or (not (and (inv_main16 var4 var3 var2 var1 var0) (not (= var2 0)))) (inv_main16 var4 var3 (+ var2 (- 1)) (+ var1 (- 2)) (+ var0 1)))))
(assert (forall ((var0 Int) (var1 Int) (var2 Int) (var3 Int)) (or (not (and (inv_main3 var3 var2) (and (<= 0 var1) (and (<= 0 var0) (<= 0 (+ 1000000 (* (- 1) var0))))))) (inv_main16 var0 var1 var0 var1 0))))
(assert (forall ((var0 Int) (var1 Int) (var2 Int) (var3 Int) (var4 Int)) (not (and (inv_main22 var4 var3 var2 var1 var0) (not (= var1 (* (- 1) var0)))))))
(check-sat)
